c description: Random 3-CNF over 16 variables and 80 clauses
p cnf 16 80
3 -10 -11 0
4 -8 12 0
-1 5 11 0
1 13 14 0
3 -7 12 0
-2 5 16 0
-12 14 16 0
-3 -13 -14 0
-3 -7 8 0
3 14 15 0
-2 -7 13 0
2 12 13 0
-1 2 -8 0
-7 -12 15 0
-2 5 9 0
4 10 -15 0
-3 7 -8 0
3 -9 15 0
-6 -10 -16 0
1 2 -11 0
-1 -5 14 0
-13 15 -16 0
-8 9 11 0
5 11 12 0
-2 -7 -12 0
6 14 15 0
-1 4 -7 0
2 4 9 0
-3 4 -6 0
-1 -6 -7 0
7 10 -12 0
-4 11 16 0
1 3 -15 0
-5 -9 -14 0
10 -11 12 0
-4 13 -16 0
1 9 -11 0
6 7 9 0
-3 9 -15 0
7 -12 -15 0
1 5 13 0
-5 -9 -15 0
-7 -10 -14 0
-2 6 13 0
2 -5 -7 0
-2 -7 -15 0
5 13 15 0
-6 -9 13 0
-1 9 -14 0
2 13 14 0
-3 11 13 0
2 3 6 0
-8 9 -16 0
-3 -4 9 0
-10 11 14 0
2 5 -15 0
-7 10 12 0
-6 7 -10 0
3 9 -14 0
3 8 -13 0
5 10 -13 0
-8 10 15 0
1 5 -13 0
-3 4 5 0
9 11 -15 0
-8 10 -12 0
-6 -10 -12 0
-2 -9 16 0
-8 9 -15 0
7 -12 16 0
-10 -11 15 0
-5 -15 16 0
2 4 12 0
-4 9 -14 0
5 7 15 0
-3 -6 12 0
-1 6 15 0
-5 -8 -9 0
4 11 16 0
-4 -8 12 0